bomb.20.tsp
NAME : GeneratedProblem
COMMENT : SVGCrosshatch
TYPE : TSP
DIMENSION : 7
EDGE_WEIGHT_TYPE : EUC_2D
NODE_COORD_SECTION
1 1000 600
2 1500 1200
3 1600 1700
4 1700 2000
5 1900 1400
6 1900 2300
7 2300 1700
EOF
