bomb.20.out.txt
NAME : GeneratedProblem.4379.tour
COMMENT : Length = 4379
COMMENT : Found by LKH [Keld Helsgaun] Sat Nov 24 14:17:57 2018
TYPE : TOUR
DIMENSION : 7
TOUR_SECTION
1
2
5
7
6
4
3
-1
EOF
